sat
(:max-memory          17.24
 :memory              17.24
 :num-allocs          11202
 :rlimit-count        150
 :sat-mk-var          1
 :solve-eqs-elim-vars 1
 :solve-eqs-steps     1
 :total-time          0.00)
